problem_generation/data/GISP/train/er_n=62_m=1130_p=0.60_SET2_setparam=100.00_alpha=0.50_503.lp
maximize
OBJ:100x0 + 100x1 + 100x2 + 100x3 + 100x4 + 100x5 + 100x6 + 100x7 + 100x8 + 100x9 + 100x10 + 100x11 + 100x12 + 100x13 + 100x14 + 100x15 + 100x16 + 100x17 + 100x18 + 100x19 + 100x20 + 100x21 + 100x22 + 100x23 + 100x24 + 100x25 + 100x26 + 100x27 + 100x28 + 100x29 + 100x30 + 100x31 + 100x32 + 100x33 + 100x34 + 100x35 + 100x36 + 100x37 + 100x38 + 100x39 + 100x40 + 100x41 + 100x42 + 100x43 + 100x44 + 100x45 + 100x46 + 100x47 + 100x48 + 100x49 + 100x50 + 100x51 + 100x52 + 100x53 + 100x54 + 100x55 + 100x56 + 100x57 + 100x58 + 100x59 + 100x60 + 100x61 - y55_57 - y47_53 - y15_30 - y7_26 - y18_26 - y26_39 - y7_35 - y18_44 - y6_48 - y11_14 - y21_55 - y10_45 - y44_47 - y10_54 - y44_56 - y2_59 - y14_24 - y25_61 - y3_33 - y3_42 - y14_42 - y36_48 - y15_25 - y7_21 - y5_60 - y48_49 - y0_9 - y6_43 - y48_58 - y2_27 - y10_40 - y2_36 - y44_51 - y3_10 - y2_54 - y3_19 - y43_55 - y13_51 - y14_28 - y13_60 - y17_48 - y9_44 - y28_57 - y9_53 - y29_40 - y10_17 - y33_37 - y2_49 - y32_50 - y22_27 - y24_46 - y35_46 - y14_23 - y17_25 - y28_34 - y36_47 - y9_30 - y55_60 - y28_43 - y9_39 - y6_24 - y6_33 - y29_35 - y40_44 - y10_21 - y2_17 - y31_53 - y10_39 - y32_36 - y3_9 - y32_45 - y24_41 - y3_18 - y14_18 - y13_50 - y16_55 - y9_25 - y47_51 - y17_47 - y6_10 - y6_19 - y6_37 - y42_58 - y2_3 - y31_48 - y10_25 - y39_61 - y12_53 - y23_53 - y24_27 - y1_43 - y13_45 - y24_45 - y35_45 - y13_54 - y35_54 - y1_61 - y9_11 - y17_24 - y46_60 - y36_37 - y57_60 - y5_31 - y28_33 - y3_47 - y17_42 - y6_14 - y5_58 - y50_57 - y21_30 - y0_56 - y11_56 - y39_47 - y2_7 - y31_43 - y12_39 - y23_39 - y2_16 - y12_48 - y31_61 - y4_44 - y23_57 - y4_53 - y16_27 - y13_40 - y24_40 - y43_53 - y35_49 - y1_56 - y5_17 - y38_51 - y17_28 - y9_24 - y5_44 - y27_41 - y8_46 - y8_55 - y11_60 - y12_25 - y31_38 - y12_34 - y23_34 - y2_11 - y20_47 - y31_56 - y4_39 - y12_52 - y4_48 - y23_61 - y1_24 - y13_26 - y24_26 - y16_31 - y13_44 - y35_44 - y38_46 - y17_23 - y9_19 - y15_53 - y5_30 - y5_39 - y18_58 - y27_36 - y6_13 - y19_32 - y27_45 - y30_41 - y42_43 - y27_54 - y30_50 - y42_52 - y0_46 - y20_24 - y31_33 - y23_29 - y31_42 - y4_25 - y12_38 - y20_51 - y4_34 - y31_51 - y1_10 - y4_52 - y16_17 - y16_26 - y1_46 - y5_7 - y38_41 - y5_16 - y46_54 - y9_14 - y49_50 - y5_25 - y18_53 - y27_31 - y27_40 - y19_36 - y50_51 - y8_45 - y30_45 - y27_58 - y8_54 - y42_56 - y4_11 - y12_24 - y23_24 - y31_37 - y4_20 - y41_60 - y23_33 - y4_29 - y23_42 - y1_5 - y4_38 - y34_39 - y34_48 - y1_23 - y24_25 - y37_44 - y45_57 - y53_61 - y1_32 - y3_51 - y16_30 - y5_11 - y46_49 - y18_39 - y26_52 - y38_54 - y26_61 - y18_57 - y27_35 - y8_31 - y0_27 - y8_40 - y0_36 - y8_49 - y30_49 - y20_23 - y0_54 - y12_19 - y4_15 - y44_60 - y12_37 - y23_37 - y25_56 - y4_33 - y1_18 - y3_46 - y37_48 - y45_61 - y15_20 - y18_25 - y26_38 - y15_47 - y26_47 - y38_49 - y0_4 - y7_52 - y8_17 - y27_30 - y19_44 - y0_40 - y4_10 - y2_58 - y22_36 - y22_45 - y14_41 - y22_54 - y14_50 - y37_52 - y18_20 - y15_33 - y18_29 - y15_51 - y7_47 - y8_12 - y8_21 - y0_35 - y41_45 - y41_54 - y25_37 - y33_50 - y45_51 - y14_45 - y14_54 - y37_56 - y47_60 - y15_37 - y26_37 - y0_3 - y29_39 - y8_16 - y48_61 - y21_44 - y0_21 - y2_39 - y25_41 - y44_54 - y25_50 - y34_37 - y14_31 - y22_53 - y3_49 - y7_10 - y7_19 - y18_19 - y17_51 - y28_51 - y28_60 - y9_56 - y29_34 - y40_43 - y21_39 - y6_50 - y11_16 - y29_52 - y40_52 - y29_61 - y40_61 - y25_27 - y10_38 - y2_34 - y10_47 - y33_49 - y25_54 - y14_17 - y3_26 - y14_35 - y7_14 - y36_50 - y17_46 - y21_25 - y29_47 - y40_47 - y21_43 - y40_56 - y21_52 - y10_24 - y54_58 - y2_29 - y25_31 - y33_44 - y2_38 - y3_21 - y14_21 - y24_53 - y35_53 - y17_32 - y28_32 - y36_45 - y55_58 - y36_54 - y9_37 - y5_48 - y28_50 - y6_22 - y40_42 - y21_38 - y29_51 - y21_47 - y10_19 - y39_55 - y25_26 - y10_37 - y25_35 - y32_34 - y32_43 - y24_39 - y24_48 - y3_25 - y14_25 - y13_57 - y17_27 - y5_34 - y17_36 - y9_32 - y17_45 - y6_8 - y28_45 - y9_41 - y5_52 - y5_61 - y6_26 - y50_60 - y21_42 - y2_19 - y3_11 - y1_41 - y13_43 - y43_56 - y13_52 - y24_61 - y35_61 - y5_20 - y5_29 - y36_44 - y9_27 - y5_38 - y17_40 - y9_36 - y17_49 - y5_56 - y58_59 - y9_54 - y6_30 - y42_51 - y6_39 - y31_41 - y10_18 - y20_50 - y4_42 - y12_55 - y4_51 - y32_42 - y24_38 - y32_51 - y43_51 - y24_47 - y16_43 - y1_54 - y16_52 - y46_53 - y28_44 - y9_40 - y6_25 - y21_23 - y27_57 - y50_59 - y20_36 - y23_32 - y20_45 - y2_18 - y54_56 - y23_59 - y4_55 - y16_20 - y32_37 - y13_33 - y13_42 - y24_51 - y46_48 - y1_58 - y38_44 - y9_17 - y49_53 - y17_30 - y15_60 - y27_34 - y6_20 - y8_39 - y27_52 - y19_48 - y0_44 - y20_22 - y12_18 - y20_31 - y2_4 - y20_49 - y31_49 - y31_58 - y4_41 - y24_28 - y5_23 - y18_51 - y27_38 - y30_34 - y0_30 - y8_43 - y42_54 - y11_48 - y19_61 - y12_22 - y31_35 - y20_44 - y23_40 - y1_3 - y13_14 - y13_23 - y53_59 - y4_54 - y16_28 - y14_58 - y38_43 - y46_56 - y15_50 - y26_50 - y15_59 - y26_59 - y49_61 - y18_55 - y19_29 - y11_34 - y8_47 - y30_47 - y8_56 - y30_56 - y12_17 - y41_53 - y23_26 - y31_39 - y23_35 - y1_16 - y1_25 - y37_46 - y22_57 - y56_59 - y37_55 - y26_27 - y26_36 - y5_13 - y15_45 - y26_45 - y18_41 - y26_54 - y38_56 - y7_50 - y18_50 - y0_11 - y27_37 - y8_33 - y27_46 - y0_47 - y11_47 - y41_48 - y4_8 - y4_17 - y33_53 - y12_30 - y4_35 - y22_34 - y34_45 - y1_20 - y3_39 - y53_58 - y34_54 - y45_54 - y37_50 - y7_18 - y15_31 - y26_49 - y8_10 - y8_19 - y19_28 - y11_33 - y11_42 - y41_52 - y33_48 - y44_48 - y25_44 - y4_21 - y44_57 - y1_6 - y22_47 - y34_49 - y3_43 - y14_43 - y15_17 - y3_61 - y7_22 - y15_35 - y26_44 - y18_40 - y0_1 - y0_10 - y6_53 - y21_60 - y3_20 - y14_20 - y22_42 - y34_44 - y14_38 - y37_40 - y22_51 - y14_47 - y7_8
 Subject to
C1: x0+x1-y0_1 <=1 
C2: x0+x2 <=1 
C3: x0+x3-y0_3 <=1 
C4: x0+x4-y0_4 <=1 
C5: x0+x6 <=1 
C6: x0+x9-y0_9 <=1 
C7: x0+x10-y0_10 <=1 
C8: x0+x11-y0_11 <=1 
C9: x0+x13 <=1 
C10: x0+x18 <=1 
C11: x0+x20 <=1 
C12: x0+x21-y0_21 <=1 
C13: x0+x23 <=1 
C14: x0+x27-y0_27 <=1 
C15: x0+x30-y0_30 <=1 
C16: x0+x31 <=1 
C17: x0+x32 <=1 
C18: x0+x33 <=1 
C19: x0+x35-y0_35 <=1 
C20: x0+x36-y0_36 <=1 
C21: x0+x39 <=1 
C22: x0+x40-y0_40 <=1 
C23: x0+x41 <=1 
C24: x0+x44-y0_44 <=1 
C25: x0+x45 <=1 
C26: x0+x46-y0_46 <=1 
C27: x0+x47-y0_47 <=1 
C28: x0+x53 <=1 
C29: x0+x54-y0_54 <=1 
C30: x0+x56-y0_56 <=1 
C31: x0+x59 <=1 
C32: x0+x60 <=1 
C33: x0+x61 <=1 
C34: x1+x3-y1_3 <=1 
C35: x1+x4 <=1 
C36: x1+x5-y1_5 <=1 
C37: x1+x6-y1_6 <=1 
C38: x1+x10-y1_10 <=1 
C39: x1+x11 <=1 
C40: x1+x16-y1_16 <=1 
C41: x1+x18-y1_18 <=1 
C42: x1+x19 <=1 
C43: x1+x20-y1_20 <=1 
C44: x1+x23-y1_23 <=1 
C45: x1+x24-y1_24 <=1 
C46: x1+x25-y1_25 <=1 
C47: x1+x27 <=1 
C48: x1+x28 <=1 
C49: x1+x29 <=1 
C50: x1+x30 <=1 
C51: x1+x32-y1_32 <=1 
C52: x1+x34 <=1 
C53: x1+x37 <=1 
C54: x1+x39 <=1 
C55: x1+x41-y1_41 <=1 
C56: x1+x42 <=1 
C57: x1+x43-y1_43 <=1 
C58: x1+x44 <=1 
C59: x1+x45 <=1 
C60: x1+x46-y1_46 <=1 
C61: x1+x47 <=1 
C62: x1+x48 <=1 
C63: x1+x50 <=1 
C64: x1+x51 <=1 
C65: x1+x52 <=1 
C66: x1+x54-y1_54 <=1 
C67: x1+x55 <=1 
C68: x1+x56-y1_56 <=1 
C69: x1+x58-y1_58 <=1 
C70: x1+x59 <=1 
C71: x1+x61-y1_61 <=1 
C72: x2+x3-y2_3 <=1 
C73: x2+x4-y2_4 <=1 
C74: x2+x7-y2_7 <=1 
C75: x2+x8 <=1 
C76: x2+x9 <=1 
C77: x2+x11-y2_11 <=1 
C78: x2+x13 <=1 
C79: x2+x14 <=1 
C80: x2+x15 <=1 
C81: x2+x16-y2_16 <=1 
C82: x2+x17-y2_17 <=1 
C83: x2+x18-y2_18 <=1 
C84: x2+x19-y2_19 <=1 
C85: x2+x21 <=1 
C86: x2+x22 <=1 
C87: x2+x25 <=1 
C88: x2+x27-y2_27 <=1 
C89: x2+x29-y2_29 <=1 
C90: x2+x30 <=1 
C91: x2+x34-y2_34 <=1 
C92: x2+x36-y2_36 <=1 
C93: x2+x38-y2_38 <=1 
C94: x2+x39-y2_39 <=1 
C95: x2+x40 <=1 
C96: x2+x41 <=1 
C97: x2+x43 <=1 
C98: x2+x48 <=1 
C99: x2+x49-y2_49 <=1 
C100: x2+x50 <=1 
C101: x2+x52 <=1 
C102: x2+x53 <=1 
C103: x2+x54-y2_54 <=1 
C104: x2+x55 <=1 
C105: x2+x57 <=1 
C106: x2+x58-y2_58 <=1 
C107: x2+x59-y2_59 <=1 
C108: x2+x60 <=1 
C109: x3+x4 <=1 
C110: x3+x5 <=1 
C111: x3+x6 <=1 
C112: x3+x7 <=1 
C113: x3+x9-y3_9 <=1 
C114: x3+x10-y3_10 <=1 
C115: x3+x11-y3_11 <=1 
C116: x3+x12 <=1 
C117: x3+x14 <=1 
C118: x3+x18-y3_18 <=1 
C119: x3+x19-y3_19 <=1 
C120: x3+x20-y3_20 <=1 
C121: x3+x21-y3_21 <=1 
C122: x3+x25-y3_25 <=1 
C123: x3+x26-y3_26 <=1 
C124: x3+x31 <=1 
C125: x3+x33-y3_33 <=1 
C126: x3+x35 <=1 
C127: x3+x38 <=1 
C128: x3+x39-y3_39 <=1 
C129: x3+x42-y3_42 <=1 
C130: x3+x43-y3_43 <=1 
C131: x3+x45 <=1 
C132: x3+x46-y3_46 <=1 
C133: x3+x47-y3_47 <=1 
C134: x3+x49-y3_49 <=1 
C135: x3+x50 <=1 
C136: x3+x51-y3_51 <=1 
C137: x3+x54 <=1 
C138: x3+x55 <=1 
C139: x3+x59 <=1 
C140: x3+x60 <=1 
C141: x3+x61-y3_61 <=1 
C142: x4+x5 <=1 
C143: x4+x8-y4_8 <=1 
C144: x4+x10-y4_10 <=1 
C145: x4+x11-y4_11 <=1 
C146: x4+x15-y4_15 <=1 
C147: x4+x16 <=1 
C148: x4+x17-y4_17 <=1 
C149: x4+x18 <=1 
C150: x4+x20-y4_20 <=1 
C151: x4+x21-y4_21 <=1 
C152: x4+x22 <=1 
C153: x4+x25-y4_25 <=1 
C154: x4+x27 <=1 
C155: x4+x28 <=1 
C156: x4+x29-y4_29 <=1 
C157: x4+x33-y4_33 <=1 
C158: x4+x34-y4_34 <=1 
C159: x4+x35-y4_35 <=1 
C160: x4+x37 <=1 
C161: x4+x38-y4_38 <=1 
C162: x4+x39-y4_39 <=1 
C163: x4+x41-y4_41 <=1 
C164: x4+x42-y4_42 <=1 
C165: x4+x44-y4_44 <=1 
C166: x4+x47 <=1 
C167: x4+x48-y4_48 <=1 
C168: x4+x49 <=1 
C169: x4+x51-y4_51 <=1 
C170: x4+x52-y4_52 <=1 
C171: x4+x53-y4_53 <=1 
C172: x4+x54-y4_54 <=1 
C173: x4+x55-y4_55 <=1 
C174: x4+x57 <=1 
C175: x4+x59 <=1 
C176: x5+x6 <=1 
C177: x5+x7-y5_7 <=1 
C178: x5+x8 <=1 
C179: x5+x9 <=1 
C180: x5+x11-y5_11 <=1 
C181: x5+x13-y5_13 <=1 
C182: x5+x15 <=1 
C183: x5+x16-y5_16 <=1 
C184: x5+x17-y5_17 <=1 
C185: x5+x20-y5_20 <=1 
C186: x5+x23-y5_23 <=1 
C187: x5+x25-y5_25 <=1 
C188: x5+x29-y5_29 <=1 
C189: x5+x30-y5_30 <=1 
C190: x5+x31-y5_31 <=1 
C191: x5+x34-y5_34 <=1 
C192: x5+x35 <=1 
C193: x5+x36 <=1 
C194: x5+x37 <=1 
C195: x5+x38-y5_38 <=1 
C196: x5+x39-y5_39 <=1 
C197: x5+x40 <=1 
C198: x5+x41 <=1 
C199: x5+x42 <=1 
C200: x5+x44-y5_44 <=1 
C201: x5+x48-y5_48 <=1 
C202: x5+x51 <=1 
C203: x5+x52-y5_52 <=1 
C204: x5+x56-y5_56 <=1 
C205: x5+x57 <=1 
C206: x5+x58-y5_58 <=1 
C207: x5+x60-y5_60 <=1 
C208: x5+x61-y5_61 <=1 
C209: x6+x8-y6_8 <=1 
C210: x6+x9 <=1 
C211: x6+x10-y6_10 <=1 
C212: x6+x11 <=1 
C213: x6+x13-y6_13 <=1 
C214: x6+x14-y6_14 <=1 
C215: x6+x17 <=1 
C216: x6+x18 <=1 
C217: x6+x19-y6_19 <=1 
C218: x6+x20-y6_20 <=1 
C219: x6+x22-y6_22 <=1 
C220: x6+x24-y6_24 <=1 
C221: x6+x25-y6_25 <=1 
C222: x6+x26-y6_26 <=1 
C223: x6+x27 <=1 
C224: x6+x28 <=1 
C225: x6+x30-y6_30 <=1 
C226: x6+x31 <=1 
C227: x6+x33-y6_33 <=1 
C228: x6+x34 <=1 
C229: x6+x37-y6_37 <=1 
C230: x6+x39-y6_39 <=1 
C231: x6+x43-y6_43 <=1 
C232: x6+x44 <=1 
C233: x6+x45 <=1 
C234: x6+x47 <=1 
C235: x6+x48-y6_48 <=1 
C236: x6+x50-y6_50 <=1 
C237: x6+x51 <=1 
C238: x6+x53-y6_53 <=1 
C239: x6+x54 <=1 
C240: x6+x55 <=1 
C241: x6+x56 <=1 
C242: x6+x57 <=1 
C243: x6+x59 <=1 
C244: x6+x60 <=1 
C245: x6+x61 <=1 
C246: x7+x8-y7_8 <=1 
C247: x7+x9 <=1 
C248: x7+x10-y7_10 <=1 
C249: x7+x14-y7_14 <=1 
C250: x7+x15 <=1 
C251: x7+x16 <=1 
C252: x7+x18-y7_18 <=1 
C253: x7+x19-y7_19 <=1 
C254: x7+x20 <=1 
C255: x7+x21-y7_21 <=1 
C256: x7+x22-y7_22 <=1 
C257: x7+x24 <=1 
C258: x7+x25 <=1 
C259: x7+x26-y7_26 <=1 
C260: x7+x28 <=1 
C261: x7+x30 <=1 
C262: x7+x32 <=1 
C263: x7+x33 <=1 
C264: x7+x34 <=1 
C265: x7+x35-y7_35 <=1 
C266: x7+x42 <=1 
C267: x7+x47-y7_47 <=1 
C268: x7+x48 <=1 
C269: x7+x50-y7_50 <=1 
C270: x7+x51 <=1 
C271: x7+x52-y7_52 <=1 
C272: x7+x54 <=1 
C273: x7+x56 <=1 
C274: x8+x10-y8_10 <=1 
C275: x8+x12-y8_12 <=1 
C276: x8+x14 <=1 
C277: x8+x15 <=1 
C278: x8+x16-y8_16 <=1 
C279: x8+x17-y8_17 <=1 
C280: x8+x19-y8_19 <=1 
C281: x8+x20 <=1 
C282: x8+x21-y8_21 <=1 
C283: x8+x24 <=1 
C284: x8+x25 <=1 
C285: x8+x26 <=1 
C286: x8+x27 <=1 
C287: x8+x28 <=1 
C288: x8+x29 <=1 
C289: x8+x31-y8_31 <=1 
C290: x8+x33-y8_33 <=1 
C291: x8+x34 <=1 
C292: x8+x35 <=1 
C293: x8+x37 <=1 
C294: x8+x39-y8_39 <=1 
C295: x8+x40-y8_40 <=1 
C296: x8+x42 <=1 
C297: x8+x43-y8_43 <=1 
C298: x8+x45-y8_45 <=1 
C299: x8+x46-y8_46 <=1 
C300: x8+x47-y8_47 <=1 
C301: x8+x48 <=1 
C302: x8+x49-y8_49 <=1 
C303: x8+x50 <=1 
C304: x8+x51 <=1 
C305: x8+x54-y8_54 <=1 
C306: x8+x55-y8_55 <=1 
C307: x8+x56-y8_56 <=1 
C308: x8+x57 <=1 
C309: x8+x61 <=1 
C310: x9+x10 <=1 
C311: x9+x11-y9_11 <=1 
C312: x9+x12 <=1 
C313: x9+x13 <=1 
C314: x9+x14-y9_14 <=1 
C315: x9+x16 <=1 
C316: x9+x17-y9_17 <=1 
C317: x9+x18 <=1 
C318: x9+x19-y9_19 <=1 
C319: x9+x20 <=1 
C320: x9+x21 <=1 
C321: x9+x23 <=1 
C322: x9+x24-y9_24 <=1 
C323: x9+x25-y9_25 <=1 
C324: x9+x26 <=1 
C325: x9+x27-y9_27 <=1 
C326: x9+x30-y9_30 <=1 
C327: x9+x32-y9_32 <=1 
C328: x9+x35 <=1 
C329: x9+x36-y9_36 <=1 
C330: x9+x37-y9_37 <=1 
C331: x9+x39-y9_39 <=1 
C332: x9+x40-y9_40 <=1 
C333: x9+x41-y9_41 <=1 
C334: x9+x42 <=1 
C335: x9+x44-y9_44 <=1 
C336: x9+x45 <=1 
C337: x9+x46 <=1 
C338: x9+x51 <=1 
C339: x9+x52 <=1 
C340: x9+x53-y9_53 <=1 
C341: x9+x54-y9_54 <=1 
C342: x9+x56-y9_56 <=1 
C343: x9+x58 <=1 
C344: x9+x59 <=1 
C345: x9+x60 <=1 
C346: x10+x11 <=1 
C347: x10+x13 <=1 
C348: x10+x15 <=1 
C349: x10+x17-y10_17 <=1 
C350: x10+x18-y10_18 <=1 
C351: x10+x19-y10_19 <=1 
C352: x10+x21-y10_21 <=1 
C353: x10+x22 <=1 
C354: x10+x24-y10_24 <=1 
C355: x10+x25-y10_25 <=1 
C356: x10+x27 <=1 
C357: x10+x36 <=1 
C358: x10+x37-y10_37 <=1 
C359: x10+x38-y10_38 <=1 
C360: x10+x39-y10_39 <=1 
C361: x10+x40-y10_40 <=1 
C362: x10+x41 <=1 
C363: x10+x42 <=1 
C364: x10+x44 <=1 
C365: x10+x45-y10_45 <=1 
C366: x10+x46 <=1 
C367: x10+x47-y10_47 <=1 
C368: x10+x49 <=1 
C369: x10+x51 <=1 
C370: x10+x53 <=1 
C371: x10+x54-y10_54 <=1 
C372: x10+x55 <=1 
C373: x10+x56 <=1 
C374: x10+x61 <=1 
C375: x11+x12 <=1 
C376: x11+x13 <=1 
C377: x11+x14-y11_14 <=1 
C378: x11+x15 <=1 
C379: x11+x16-y11_16 <=1 
C380: x11+x17 <=1 
C381: x11+x18 <=1 
C382: x11+x19 <=1 
C383: x11+x22 <=1 
C384: x11+x23 <=1 
C385: x11+x24 <=1 
C386: x11+x29 <=1 
C387: x11+x31 <=1 
C388: x11+x33-y11_33 <=1 
C389: x11+x34-y11_34 <=1 
C390: x11+x35 <=1 
C391: x11+x42-y11_42 <=1 
C392: x11+x43 <=1 
C393: x11+x47-y11_47 <=1 
C394: x11+x48-y11_48 <=1 
C395: x11+x56-y11_56 <=1 
C396: x11+x57 <=1 
C397: x11+x58 <=1 
C398: x11+x60-y11_60 <=1 
C399: x12+x14 <=1 
C400: x12+x17-y12_17 <=1 
C401: x12+x18-y12_18 <=1 
C402: x12+x19-y12_19 <=1 
C403: x12+x20 <=1 
C404: x12+x22-y12_22 <=1 
C405: x12+x23 <=1 
C406: x12+x24-y12_24 <=1 
C407: x12+x25-y12_25 <=1 
C408: x12+x27 <=1 
C409: x12+x28 <=1 
C410: x12+x30-y12_30 <=1 
C411: x12+x31 <=1 
C412: x12+x32 <=1 
C413: x12+x34-y12_34 <=1 
C414: x12+x37-y12_37 <=1 
C415: x12+x38-y12_38 <=1 
C416: x12+x39-y12_39 <=1 
C417: x12+x46 <=1 
C418: x12+x47 <=1 
C419: x12+x48-y12_48 <=1 
C420: x12+x49 <=1 
C421: x12+x51 <=1 
C422: x12+x52-y12_52 <=1 
C423: x12+x53-y12_53 <=1 
C424: x12+x55-y12_55 <=1 
C425: x12+x57 <=1 
C426: x12+x58 <=1 
C427: x12+x59 <=1 
C428: x12+x60 <=1 
C429: x13+x14-y13_14 <=1 
C430: x13+x16 <=1 
C431: x13+x17 <=1 
C432: x13+x21 <=1 
C433: x13+x23-y13_23 <=1 
C434: x13+x26-y13_26 <=1 
C435: x13+x28 <=1 
C436: x13+x29 <=1 
C437: x13+x32 <=1 
C438: x13+x33-y13_33 <=1 
C439: x13+x34 <=1 
C440: x13+x35 <=1 
C441: x13+x37 <=1 
C442: x13+x38 <=1 
C443: x13+x39 <=1 
C444: x13+x40-y13_40 <=1 
C445: x13+x42-y13_42 <=1 
C446: x13+x43-y13_43 <=1 
C447: x13+x44-y13_44 <=1 
C448: x13+x45-y13_45 <=1 
C449: x13+x46 <=1 
C450: x13+x48 <=1 
C451: x13+x50-y13_50 <=1 
C452: x13+x51-y13_51 <=1 
C453: x13+x52-y13_52 <=1 
C454: x13+x54-y13_54 <=1 
C455: x13+x57-y13_57 <=1 
C456: x13+x60-y13_60 <=1 
C457: x13+x61 <=1 
C458: x14+x16 <=1 
C459: x14+x17-y14_17 <=1 
C460: x14+x18-y14_18 <=1 
C461: x14+x20-y14_20 <=1 
C462: x14+x21-y14_21 <=1 
C463: x14+x23-y14_23 <=1 
C464: x14+x24-y14_24 <=1 
C465: x14+x25-y14_25 <=1 
C466: x14+x27 <=1 
C467: x14+x28-y14_28 <=1 
C468: x14+x30 <=1 
C469: x14+x31-y14_31 <=1 
C470: x14+x34 <=1 
C471: x14+x35-y14_35 <=1 
C472: x14+x37 <=1 
C473: x14+x38-y14_38 <=1 
C474: x14+x41-y14_41 <=1 
C475: x14+x42-y14_42 <=1 
C476: x14+x43-y14_43 <=1 
C477: x14+x45-y14_45 <=1 
C478: x14+x47-y14_47 <=1 
C479: x14+x49 <=1 
C480: x14+x50-y14_50 <=1 
C481: x14+x52 <=1 
C482: x14+x54-y14_54 <=1 
C483: x14+x55 <=1 
C484: x14+x58-y14_58 <=1 
C485: x14+x60 <=1 
C486: x15+x17-y15_17 <=1 
C487: x15+x19 <=1 
C488: x15+x20-y15_20 <=1 
C489: x15+x23 <=1 
C490: x15+x24 <=1 
C491: x15+x25-y15_25 <=1 
C492: x15+x26 <=1 
C493: x15+x27 <=1 
C494: x15+x28 <=1 
C495: x15+x30-y15_30 <=1 
C496: x15+x31-y15_31 <=1 
C497: x15+x32 <=1 
C498: x15+x33-y15_33 <=1 
C499: x15+x35-y15_35 <=1 
C500: x15+x36 <=1 
C501: x15+x37-y15_37 <=1 
C502: x15+x38 <=1 
C503: x15+x39 <=1 
C504: x15+x44 <=1 
C505: x15+x45-y15_45 <=1 
C506: x15+x47-y15_47 <=1 
C507: x15+x48 <=1 
C508: x15+x50-y15_50 <=1 
C509: x15+x51-y15_51 <=1 
C510: x15+x52 <=1 
C511: x15+x53-y15_53 <=1 
C512: x15+x54 <=1 
C513: x15+x55 <=1 
C514: x15+x57 <=1 
C515: x15+x58 <=1 
C516: x15+x59-y15_59 <=1 
C517: x15+x60-y15_60 <=1 
C518: x16+x17-y16_17 <=1 
C519: x16+x18 <=1 
C520: x16+x20-y16_20 <=1 
C521: x16+x26-y16_26 <=1 
C522: x16+x27-y16_27 <=1 
C523: x16+x28-y16_28 <=1 
C524: x16+x30-y16_30 <=1 
C525: x16+x31-y16_31 <=1 
C526: x16+x37 <=1 
C527: x16+x40 <=1 
C528: x16+x42 <=1 
C529: x16+x43-y16_43 <=1 
C530: x16+x44 <=1 
C531: x16+x46 <=1 
C532: x16+x48 <=1 
C533: x16+x51 <=1 
C534: x16+x52-y16_52 <=1 
C535: x16+x54 <=1 
C536: x16+x55-y16_55 <=1 
C537: x16+x57 <=1 
C538: x16+x58 <=1 
C539: x16+x60 <=1 
C540: x16+x61 <=1 
C541: x17+x18 <=1 
C542: x17+x21 <=1 
C543: x17+x23-y17_23 <=1 
C544: x17+x24-y17_24 <=1 
C545: x17+x25-y17_25 <=1 
C546: x17+x27-y17_27 <=1 
C547: x17+x28-y17_28 <=1 
C548: x17+x29 <=1 
C549: x17+x30-y17_30 <=1 
C550: x17+x31 <=1 
C551: x17+x32-y17_32 <=1 
C552: x17+x34 <=1 
C553: x17+x36-y17_36 <=1 
C554: x17+x37 <=1 
C555: x17+x40-y17_40 <=1 
C556: x17+x42-y17_42 <=1 
C557: x17+x44 <=1 
C558: x17+x45-y17_45 <=1 
C559: x17+x46-y17_46 <=1 
C560: x17+x47-y17_47 <=1 
C561: x17+x48-y17_48 <=1 
C562: x17+x49-y17_49 <=1 
C563: x17+x50 <=1 
C564: x17+x51-y17_51 <=1 
C565: x17+x58 <=1 
C566: x17+x60 <=1 
C567: x18+x19-y18_19 <=1 
C568: x18+x20-y18_20 <=1 
C569: x18+x21 <=1 
C570: x18+x24 <=1 
C571: x18+x25-y18_25 <=1 
C572: x18+x26-y18_26 <=1 
C573: x18+x27 <=1 
C574: x18+x29-y18_29 <=1 
C575: x18+x34 <=1 
C576: x18+x39-y18_39 <=1 
C577: x18+x40-y18_40 <=1 
C578: x18+x41-y18_41 <=1 
C579: x18+x43 <=1 
C580: x18+x44-y18_44 <=1 
C581: x18+x45 <=1 
C582: x18+x47 <=1 
C583: x18+x48 <=1 
C584: x18+x49 <=1 
C585: x18+x50-y18_50 <=1 
C586: x18+x51-y18_51 <=1 
C587: x18+x53-y18_53 <=1 
C588: x18+x55-y18_55 <=1 
C589: x18+x57-y18_57 <=1 
C590: x18+x58-y18_58 <=1 
C591: x18+x60 <=1 
C592: x18+x61 <=1 
C593: x19+x20 <=1 
C594: x19+x21 <=1 
C595: x19+x23 <=1 
C596: x19+x26 <=1 
C597: x19+x27 <=1 
C598: x19+x28-y19_28 <=1 
C599: x19+x29-y19_29 <=1 
C600: x19+x30 <=1 
C601: x19+x32-y19_32 <=1 
C602: x19+x36-y19_36 <=1 
C603: x19+x37 <=1 
C604: x19+x40 <=1 
C605: x19+x41 <=1 
C606: x19+x42 <=1 
C607: x19+x43 <=1 
C608: x19+x44-y19_44 <=1 
C609: x19+x45 <=1 
C610: x19+x46 <=1 
C611: x19+x48-y19_48 <=1 
C612: x19+x50 <=1 
C613: x19+x54 <=1 
C614: x19+x55 <=1 
C615: x19+x58 <=1 
C616: x19+x60 <=1 
C617: x19+x61-y19_61 <=1 
C618: x20+x21 <=1 
C619: x20+x22-y20_22 <=1 
C620: x20+x23-y20_23 <=1 
C621: x20+x24-y20_24 <=1 
C622: x20+x26 <=1 
C623: x20+x27 <=1 
C624: x20+x28 <=1 
C625: x20+x31-y20_31 <=1 
C626: x20+x35 <=1 
C627: x20+x36-y20_36 <=1 
C628: x20+x37 <=1 
C629: x20+x40 <=1 
C630: x20+x41 <=1 
C631: x20+x43 <=1 
C632: x20+x44-y20_44 <=1 
C633: x20+x45-y20_45 <=1 
C634: x20+x47-y20_47 <=1 
C635: x20+x48 <=1 
C636: x20+x49-y20_49 <=1 
C637: x20+x50-y20_50 <=1 
C638: x20+x51-y20_51 <=1 
C639: x20+x55 <=1 
C640: x20+x58 <=1 
C641: x20+x61 <=1 
C642: x21+x23-y21_23 <=1 
C643: x21+x24 <=1 
C644: x21+x25-y21_25 <=1 
C645: x21+x26 <=1 
C646: x21+x29 <=1 
C647: x21+x30-y21_30 <=1 
C648: x21+x35 <=1 
C649: x21+x36 <=1 
C650: x21+x37 <=1 
C651: x21+x38-y21_38 <=1 
C652: x21+x39-y21_39 <=1 
C653: x21+x42-y21_42 <=1 
C654: x21+x43-y21_43 <=1 
C655: x21+x44-y21_44 <=1 
C656: x21+x47-y21_47 <=1 
C657: x21+x48 <=1 
C658: x21+x49 <=1 
C659: x21+x52-y21_52 <=1 
C660: x21+x55-y21_55 <=1 
C661: x21+x56 <=1 
C662: x21+x57 <=1 
C663: x21+x58 <=1 
C664: x21+x59 <=1 
C665: x21+x60-y21_60 <=1 
C666: x22+x23 <=1 
C667: x22+x24 <=1 
C668: x22+x25 <=1 
C669: x22+x27-y22_27 <=1 
C670: x22+x28 <=1 
C671: x22+x29 <=1 
C672: x22+x34-y22_34 <=1 
C673: x22+x36-y22_36 <=1 
C674: x22+x38 <=1 
C675: x22+x39 <=1 
C676: x22+x40 <=1 
C677: x22+x41 <=1 
C678: x22+x42-y22_42 <=1 
C679: x22+x45-y22_45 <=1 
C680: x22+x47-y22_47 <=1 
C681: x22+x48 <=1 
C682: x22+x49 <=1 
C683: x22+x51-y22_51 <=1 
C684: x22+x52 <=1 
C685: x22+x53-y22_53 <=1 
C686: x22+x54-y22_54 <=1 
C687: x22+x57-y22_57 <=1 
C688: x22+x59 <=1 
C689: x23+x24-y23_24 <=1 
C690: x23+x26-y23_26 <=1 
C691: x23+x27 <=1 
C692: x23+x29-y23_29 <=1 
C693: x23+x32-y23_32 <=1 
C694: x23+x33-y23_33 <=1 
C695: x23+x34-y23_34 <=1 
C696: x23+x35-y23_35 <=1 
C697: x23+x37-y23_37 <=1 
C698: x23+x39-y23_39 <=1 
C699: x23+x40-y23_40 <=1 
C700: x23+x42-y23_42 <=1 
C701: x23+x43 <=1 
C702: x23+x44 <=1 
C703: x23+x53-y23_53 <=1 
C704: x23+x54 <=1 
C705: x23+x55 <=1 
C706: x23+x56 <=1 
C707: x23+x57-y23_57 <=1 
C708: x23+x59-y23_59 <=1 
C709: x23+x61-y23_61 <=1 
C710: x24+x25-y24_25 <=1 
C711: x24+x26-y24_26 <=1 
C712: x24+x27-y24_27 <=1 
C713: x24+x28-y24_28 <=1 
C714: x24+x30 <=1 
C715: x24+x31 <=1 
C716: x24+x33 <=1 
C717: x24+x34 <=1 
C718: x24+x37 <=1 
C719: x24+x38-y24_38 <=1 
C720: x24+x39-y24_39 <=1 
C721: x24+x40-y24_40 <=1 
C722: x24+x41-y24_41 <=1 
C723: x24+x42 <=1 
C724: x24+x43 <=1 
C725: x24+x44 <=1 
C726: x24+x45-y24_45 <=1 
C727: x24+x46-y24_46 <=1 
C728: x24+x47-y24_47 <=1 
C729: x24+x48-y24_48 <=1 
C730: x24+x51-y24_51 <=1 
C731: x24+x53-y24_53 <=1 
C732: x24+x55 <=1 
C733: x24+x57 <=1 
C734: x24+x58 <=1 
C735: x24+x60 <=1 
C736: x24+x61-y24_61 <=1 
C737: x25+x26-y25_26 <=1 
C738: x25+x27-y25_27 <=1 
C739: x25+x29 <=1 
C740: x25+x31-y25_31 <=1 
C741: x25+x34 <=1 
C742: x25+x35-y25_35 <=1 
C743: x25+x37-y25_37 <=1 
C744: x25+x38 <=1 
C745: x25+x39 <=1 
C746: x25+x40 <=1 
C747: x25+x41-y25_41 <=1 
C748: x25+x42 <=1 
C749: x25+x44-y25_44 <=1 
C750: x25+x48 <=1 
C751: x25+x50-y25_50 <=1 
C752: x25+x52 <=1 
C753: x25+x54-y25_54 <=1 
C754: x25+x56-y25_56 <=1 
C755: x25+x57 <=1 
C756: x25+x61-y25_61 <=1 
C757: x26+x27-y26_27 <=1 
C758: x26+x28 <=1 
C759: x26+x30 <=1 
C760: x26+x31 <=1 
C761: x26+x33 <=1 
C762: x26+x36-y26_36 <=1 
C763: x26+x37-y26_37 <=1 
C764: x26+x38-y26_38 <=1 
C765: x26+x39-y26_39 <=1 
C766: x26+x40 <=1 
C767: x26+x41 <=1 
C768: x26+x42 <=1 
C769: x26+x43 <=1 
C770: x26+x44-y26_44 <=1 
C771: x26+x45-y26_45 <=1 
C772: x26+x47-y26_47 <=1 
C773: x26+x48 <=1 
C774: x26+x49-y26_49 <=1 
C775: x26+x50-y26_50 <=1 
C776: x26+x51 <=1 
C777: x26+x52-y26_52 <=1 
C778: x26+x54-y26_54 <=1 
C779: x26+x55 <=1 
C780: x26+x59-y26_59 <=1 
C781: x26+x61-y26_61 <=1 
C782: x27+x30-y27_30 <=1 
C783: x27+x31-y27_31 <=1 
C784: x27+x32 <=1 
C785: x27+x34-y27_34 <=1 
C786: x27+x35-y27_35 <=1 
C787: x27+x36-y27_36 <=1 
C788: x27+x37-y27_37 <=1 
C789: x27+x38-y27_38 <=1 
C790: x27+x40-y27_40 <=1 
C791: x27+x41-y27_41 <=1 
C792: x27+x45-y27_45 <=1 
C793: x27+x46-y27_46 <=1 
C794: x27+x48 <=1 
C795: x27+x51 <=1 
C796: x27+x52-y27_52 <=1 
C797: x27+x54-y27_54 <=1 
C798: x27+x57-y27_57 <=1 
C799: x27+x58-y27_58 <=1 
C800: x27+x60 <=1 
C801: x28+x31 <=1 
C802: x28+x32-y28_32 <=1 
C803: x28+x33-y28_33 <=1 
C804: x28+x34-y28_34 <=1 
C805: x28+x37 <=1 
C806: x28+x38 <=1 
C807: x28+x41 <=1 
C808: x28+x43-y28_43 <=1 
C809: x28+x44-y28_44 <=1 
C810: x28+x45-y28_45 <=1 
C811: x28+x46 <=1 
C812: x28+x47 <=1 
C813: x28+x48 <=1 
C814: x28+x49 <=1 
C815: x28+x50-y28_50 <=1 
C816: x28+x51-y28_51 <=1 
C817: x28+x54 <=1 
C818: x28+x56 <=1 
C819: x28+x57-y28_57 <=1 
C820: x28+x60-y28_60 <=1 
C821: x29+x33 <=1 
C822: x29+x34-y29_34 <=1 
C823: x29+x35-y29_35 <=1 
C824: x29+x37 <=1 
C825: x29+x38 <=1 
C826: x29+x39-y29_39 <=1 
C827: x29+x40-y29_40 <=1 
C828: x29+x44 <=1 
C829: x29+x45 <=1 
C830: x29+x47-y29_47 <=1 
C831: x29+x48 <=1 
C832: x29+x51-y29_51 <=1 
C833: x29+x52-y29_52 <=1 
C834: x29+x54 <=1 
C835: x29+x56 <=1 
C836: x29+x58 <=1 
C837: x29+x61-y29_61 <=1 
C838: x30+x34-y30_34 <=1 
C839: x30+x35 <=1 
C840: x30+x37 <=1 
C841: x30+x39 <=1 
C842: x30+x41-y30_41 <=1 
C843: x30+x42 <=1 
C844: x30+x44 <=1 
C845: x30+x45-y30_45 <=1 
C846: x30+x47-y30_47 <=1 
C847: x30+x48 <=1 
C848: x30+x49-y30_49 <=1 
C849: x30+x50-y30_50 <=1 
C850: x30+x52 <=1 
C851: x30+x55 <=1 
C852: x30+x56-y30_56 <=1 
C853: x30+x57 <=1 
C854: x30+x59 <=1 
C855: x31+x33-y31_33 <=1 
C856: x31+x35-y31_35 <=1 
C857: x31+x37-y31_37 <=1 
C858: x31+x38-y31_38 <=1 
C859: x31+x39-y31_39 <=1 
C860: x31+x41-y31_41 <=1 
C861: x31+x42-y31_42 <=1 
C862: x31+x43-y31_43 <=1 
C863: x31+x44 <=1 
C864: x31+x47 <=1 
C865: x31+x48-y31_48 <=1 
C866: x31+x49-y31_49 <=1 
C867: x31+x50 <=1 
C868: x31+x51-y31_51 <=1 
C869: x31+x52 <=1 
C870: x31+x53-y31_53 <=1 
C871: x31+x56-y31_56 <=1 
C872: x31+x57 <=1 
C873: x31+x58-y31_58 <=1 
C874: x31+x59 <=1 
C875: x31+x60 <=1 
C876: x31+x61-y31_61 <=1 
C877: x32+x33 <=1 
C878: x32+x34-y32_34 <=1 
C879: x32+x35 <=1 
C880: x32+x36-y32_36 <=1 
C881: x32+x37-y32_37 <=1 
C882: x32+x38 <=1 
C883: x32+x41 <=1 
C884: x32+x42-y32_42 <=1 
C885: x32+x43-y32_43 <=1 
C886: x32+x45-y32_45 <=1 
C887: x32+x46 <=1 
C888: x32+x47 <=1 
C889: x32+x48 <=1 
C890: x32+x50-y32_50 <=1 
C891: x32+x51-y32_51 <=1 
C892: x32+x54 <=1 
C893: x32+x57 <=1 
C894: x32+x58 <=1 
C895: x32+x61 <=1 
C896: x33+x36 <=1 
C897: x33+x37-y33_37 <=1 
C898: x33+x39 <=1 
C899: x33+x41 <=1 
C900: x33+x42 <=1 
C901: x33+x43 <=1 
C902: x33+x44-y33_44 <=1 
C903: x33+x46 <=1 
C904: x33+x48-y33_48 <=1 
C905: x33+x49-y33_49 <=1 
C906: x33+x50-y33_50 <=1 
C907: x33+x52 <=1 
C908: x33+x53-y33_53 <=1 
C909: x33+x54 <=1 
C910: x33+x56 <=1 
C911: x33+x57 <=1 
C912: x33+x59 <=1 
C913: x33+x60 <=1 
C914: x33+x61 <=1 
C915: x34+x35 <=1 
C916: x34+x36 <=1 
C917: x34+x37-y34_37 <=1 
C918: x34+x38 <=1 
C919: x34+x39-y34_39 <=1 
C920: x34+x40 <=1 
C921: x34+x41 <=1 
C922: x34+x44-y34_44 <=1 
C923: x34+x45-y34_45 <=1 
C924: x34+x46 <=1 
C925: x34+x47 <=1 
C926: x34+x48-y34_48 <=1 
C927: x34+x49-y34_49 <=1 
C928: x34+x50 <=1 
C929: x34+x52 <=1 
C930: x34+x54-y34_54 <=1 
C931: x34+x55 <=1 
C932: x34+x56 <=1 
C933: x34+x58 <=1 
C934: x34+x60 <=1 
C935: x34+x61 <=1 
C936: x35+x36 <=1 
C937: x35+x37 <=1 
C938: x35+x39 <=1 
C939: x35+x40 <=1 
C940: x35+x41 <=1 
C941: x35+x44-y35_44 <=1 
C942: x35+x45-y35_45 <=1 
C943: x35+x46-y35_46 <=1 
C944: x35+x49-y35_49 <=1 
C945: x35+x50 <=1 
C946: x35+x53-y35_53 <=1 
C947: x35+x54-y35_54 <=1 
C948: x35+x55 <=1 
C949: x35+x57 <=1 
C950: x35+x58 <=1 
C951: x35+x60 <=1 
C952: x35+x61-y35_61 <=1 
C953: x36+x37-y36_37 <=1 
C954: x36+x38 <=1 
C955: x36+x39 <=1 
C956: x36+x43 <=1 
C957: x36+x44-y36_44 <=1 
C958: x36+x45-y36_45 <=1 
C959: x36+x47-y36_47 <=1 
C960: x36+x48-y36_48 <=1 
C961: x36+x50-y36_50 <=1 
C962: x36+x51 <=1 
C963: x36+x52 <=1 
C964: x36+x53 <=1 
C965: x36+x54-y36_54 <=1 
C966: x36+x55 <=1 
C967: x36+x57 <=1 
C968: x36+x60 <=1 
C969: x37+x38 <=1 
C970: x37+x39 <=1 
C971: x37+x40-y37_40 <=1 
C972: x37+x41 <=1 
C973: x37+x44-y37_44 <=1 
C974: x37+x45 <=1 
C975: x37+x46-y37_46 <=1 
C976: x37+x48-y37_48 <=1 
C977: x37+x50-y37_50 <=1 
C978: x37+x51 <=1 
C979: x37+x52-y37_52 <=1 
C980: x37+x55-y37_55 <=1 
C981: x37+x56-y37_56 <=1 
C982: x38+x39 <=1 
C983: x38+x40 <=1 
C984: x38+x41-y38_41 <=1 
C985: x38+x42 <=1 
C986: x38+x43-y38_43 <=1 
C987: x38+x44-y38_44 <=1 
C988: x38+x46-y38_46 <=1 
C989: x38+x49-y38_49 <=1 
C990: x38+x51-y38_51 <=1 
C991: x38+x52 <=1 
C992: x38+x53 <=1 
C993: x38+x54-y38_54 <=1 
C994: x38+x56-y38_56 <=1 
C995: x38+x59 <=1 
C996: x39+x42 <=1 
C997: x39+x47-y39_47 <=1 
C998: x39+x48 <=1 
C999: x39+x49 <=1 
C1000: x39+x53 <=1 
C1001: x39+x55-y39_55 <=1 
C1002: x39+x61-y39_61 <=1 
C1003: x40+x42-y40_42 <=1 
C1004: x40+x43-y40_43 <=1 
C1005: x40+x44-y40_44 <=1 
C1006: x40+x47-y40_47 <=1 
C1007: x40+x51 <=1 
C1008: x40+x52-y40_52 <=1 
C1009: x40+x55 <=1 
C1010: x40+x56-y40_56 <=1 
C1011: x40+x57 <=1 
C1012: x40+x61-y40_61 <=1 
C1013: x41+x45-y41_45 <=1 
C1014: x41+x47 <=1 
C1015: x41+x48-y41_48 <=1 
C1016: x41+x50 <=1 
C1017: x41+x52-y41_52 <=1 
C1018: x41+x53-y41_53 <=1 
C1019: x41+x54-y41_54 <=1 
C1020: x41+x60-y41_60 <=1 
C1021: x42+x43-y42_43 <=1 
C1022: x42+x46 <=1 
C1023: x42+x47 <=1 
C1024: x42+x51-y42_51 <=1 
C1025: x42+x52-y42_52 <=1 
C1026: x42+x54-y42_54 <=1 
C1027: x42+x56-y42_56 <=1 
C1028: x42+x57 <=1 
C1029: x42+x58-y42_58 <=1 
C1030: x43+x44 <=1 
C1031: x43+x47 <=1 
C1032: x43+x48 <=1 
C1033: x43+x50 <=1 
C1034: x43+x51-y43_51 <=1 
C1035: x43+x53-y43_53 <=1 
C1036: x43+x54 <=1 
C1037: x43+x55-y43_55 <=1 
C1038: x43+x56-y43_56 <=1 
C1039: x43+x57 <=1 
C1040: x43+x58 <=1 
C1041: x43+x60 <=1 
C1042: x44+x45 <=1 
C1043: x44+x46 <=1 
C1044: x44+x47-y44_47 <=1 
C1045: x44+x48-y44_48 <=1 
C1046: x44+x51-y44_51 <=1 
C1047: x44+x54-y44_54 <=1 
C1048: x44+x55 <=1 
C1049: x44+x56-y44_56 <=1 
C1050: x44+x57-y44_57 <=1 
C1051: x44+x59 <=1 
C1052: x44+x60-y44_60 <=1 
C1053: x45+x46 <=1 
C1054: x45+x47 <=1 
C1055: x45+x50 <=1 
C1056: x45+x51-y45_51 <=1 
C1057: x45+x52 <=1 
C1058: x45+x53 <=1 
C1059: x45+x54-y45_54 <=1 
C1060: x45+x55 <=1 
C1061: x45+x56 <=1 
C1062: x45+x57-y45_57 <=1 
C1063: x45+x58 <=1 
C1064: x45+x60 <=1 
C1065: x45+x61-y45_61 <=1 
C1066: x46+x47 <=1 
C1067: x46+x48-y46_48 <=1 
C1068: x46+x49-y46_49 <=1 
C1069: x46+x50 <=1 
C1070: x46+x51 <=1 
C1071: x46+x52 <=1 
C1072: x46+x53-y46_53 <=1 
C1073: x46+x54-y46_54 <=1 
C1074: x46+x56-y46_56 <=1 
C1075: x46+x59 <=1 
C1076: x46+x60-y46_60 <=1 
C1077: x47+x50 <=1 
C1078: x47+x51-y47_51 <=1 
C1079: x47+x52 <=1 
C1080: x47+x53-y47_53 <=1 
C1081: x47+x55 <=1 
C1082: x47+x60-y47_60 <=1 
C1083: x48+x49-y48_49 <=1 
C1084: x48+x51 <=1 
C1085: x48+x55 <=1 
C1086: x48+x56 <=1 
C1087: x48+x57 <=1 
C1088: x48+x58-y48_58 <=1 
C1089: x48+x59 <=1 
C1090: x48+x60 <=1 
C1091: x48+x61-y48_61 <=1 
C1092: x49+x50-y49_50 <=1 
C1093: x49+x52 <=1 
C1094: x49+x53-y49_53 <=1 
C1095: x49+x54 <=1 
C1096: x49+x56 <=1 
C1097: x49+x57 <=1 
C1098: x49+x60 <=1 
C1099: x49+x61-y49_61 <=1 
C1100: x50+x51-y50_51 <=1 
C1101: x50+x52 <=1 
C1102: x50+x56 <=1 
C1103: x50+x57-y50_57 <=1 
C1104: x50+x58 <=1 
C1105: x50+x59-y50_59 <=1 
C1106: x50+x60-y50_60 <=1 
C1107: x51+x53 <=1 
C1108: x51+x55 <=1 
C1109: x51+x57 <=1 
C1110: x51+x61 <=1 
C1111: x52+x53 <=1 
C1112: x52+x54 <=1 
C1113: x52+x57 <=1 
C1114: x53+x56 <=1 
C1115: x53+x58-y53_58 <=1 
C1116: x53+x59-y53_59 <=1 
C1117: x53+x61-y53_61 <=1 
C1118: x54+x56-y54_56 <=1 
C1119: x54+x58-y54_58 <=1 
C1120: x54+x59 <=1 
C1121: x55+x56 <=1 
C1122: x55+x57-y55_57 <=1 
C1123: x55+x58-y55_58 <=1 
C1124: x55+x60-y55_60 <=1 
C1125: x56+x59-y56_59 <=1 
C1126: x57+x60-y57_60 <=1 
C1127: x58+x59-y58_59 <=1 
C1128: x58+x61 <=1 
C1129: x59+x60 <=1 
C1130: x60+x61 <=1 

binary
x0
x1
x2
x3
x4
x5
x6
x7
x8
x9
x10
x11
x12
x13
x14
x15
x16
x17
x18
x19
x20
x21
x22
x23
x24
x25
x26
x27
x28
x29
x30
x31
x32
x33
x34
x35
x36
x37
x38
x39
x40
x41
x42
x43
x44
x45
x46
x47
x48
x49
x50
x51
x52
x53
x54
x55
x56
x57
x58
x59
x60
x61
