problem_generation/data/GISP/train/er_n=62_m=1130_p=0.60_SET2_setparam=100.00_alpha=0.50_503.sol
objective value:                                 1171
x2                                                  1 	(obj:100)
x5                                                  1 	(obj:100)
x10                                                 1 	(obj:100)
x16                                                 1 	(obj:100)
x17                                                 1 	(obj:100)
x23                                                 1 	(obj:100)
x24                                                 1 	(obj:100)
x28                                                 1 	(obj:100)
x32                                                 1 	(obj:100)
x39                                                 1 	(obj:100)
x45                                                 1 	(obj:100)
x59                                                 1 	(obj:100)
y10_45                                              1 	(obj:-1)
y2_59                                               1 	(obj:-1)
y10_17                                              1 	(obj:-1)
y2_17                                               1 	(obj:-1)
y10_39                                              1 	(obj:-1)
y32_45                                              1 	(obj:-1)
y24_45                                              1 	(obj:-1)
y17_24                                              1 	(obj:-1)
y23_39                                              1 	(obj:-1)
y2_16                                               1 	(obj:-1)
y5_17                                               1 	(obj:-1)
y17_28                                              1 	(obj:-1)
y17_23                                              1 	(obj:-1)
y5_39                                               1 	(obj:-1)
y16_17                                              1 	(obj:-1)
y5_16                                               1 	(obj:-1)
y23_24                                              1 	(obj:-1)
y2_39                                               1 	(obj:-1)
y10_24                                              1 	(obj:-1)
y17_32                                              1 	(obj:-1)
y28_32                                              1 	(obj:-1)
y24_39                                              1 	(obj:-1)
y17_45                                              1 	(obj:-1)
y28_45                                              1 	(obj:-1)
y23_32                                              1 	(obj:-1)
y23_59                                              1 	(obj:-1)
y24_28                                              1 	(obj:-1)
y5_23                                               1 	(obj:-1)
y16_28                                              1 	(obj:-1)
